5 10 94
2 1 1 3 3 6 18 56 80 
2 2 1 5 2 8 44 72 90 
1 4 2 50 80 
2 1 2 2 3 34 58 64 94 
3 3 1 2 2 5 1 24 42 46 58 58 64 
0 
1 1 3 60 78 
2 4 1 3 2 26 38 44 50 
11 1 1 3 1 3 1 5 1 5 1 2 2 2 2 3 3 3 3 1 3 1 3 0 6 6 14 14 24 24 32 32 42 42 44 44 46 48 50 50 56 56 58 58 60 
12 2 1 4 1 4 1 1 2 1 2 3 2 3 2 4 2 2 3 2 3 5 2 5 2 0 8 8 14 14 26 26 32 32 34 36 42 42 44 44 50 50 58 58 64 64 70 70 72 
